(set-option :print-success false)
(set-logic QF_UF)
(declare-sort x11 0)
(declare-sort x20 0)
(declare-fun x135 (x20 x20) x20)
(declare-fun x120 () x20)
(declare-fun x1 () x20)
(declare-fun x110 (x20 x20) x20)
(declare-fun x18 () x20)
(declare-fun x16 () x20)
(declare-fun x134 () x20)
(assert (or (and (not (= x16 (x135 (x135 x16 x16) x16))) (and (not (= x16 (x135 (x135 x134 x16) x134))) (and (not (= x16 (x135 (x135 x1 x16) x1))) (and (not (= x16 (x135 (x135 x18 x16) x18))) (not (= (x135 (x135 x120 x16) x120) x16)))))) (or (or (and (and (not (= x1 (x135 (x135 x134 x1) x134))) (and (not (= (x135 (x135 x1 x1) x1) x1)) (and (not (= (x135 (x135 x18 x1) x18) x1)) (not (= (x135 (x135 x120 x1) x120) x1))))) (not (= (x135 (x135 x16 x1) x16) x1))) (or (and (and (not (= x18 (x135 (x135 x134 x18) x134))) (and (and (not (= (x135 (x135 x120 x18) x120) x18)) (not (= x18 (x135 (x135 x18 x18) x18)))) (not (= (x135 (x135 x1 x18) x1) x18)))) (not (= (x135 (x135 x16 x18) x16) x18))) (and (not (= x120 (x135 (x135 x16 x120) x16))) (and (not (= x120 (x135 (x135 x134 x120) x134))) (and (and (not (= x120 (x135 (x135 x120 x120) x120))) (not (= x120 (x135 (x135 x18 x120) x18)))) (not (= x120 (x135 (x135 x1 x120) x1)))))))) (and (and (and (not (= x134 (x135 (x135 x1 x134) x1))) (and (not (= x134 (x135 (x135 x120 x134) x120))) (not (= (x135 (x135 x18 x134) x18) x134)))) (not (= x134 (x135 (x135 x134 x134) x134)))) (not (= (x135 (x135 x16 x134) x16) x134))))))
(assert (or (or (or (and (not (= x1 (x135 x16 (x135 x1 x16)))) (and (not (= x1 (x135 x134 (x135 x1 x134)))) (and (and (not (= x1 (x135 x18 (x135 x1 x18)))) (not (= x1 (x135 x120 (x135 x1 x120))))) (not (= x1 (x135 x1 (x135 x1 x1))))))) (or (and (and (and (not (= (x135 x1 (x135 x18 x1)) x18)) (and (not (= x18 (x135 x18 (x135 x18 x18)))) (not (= x18 (x135 x120 (x135 x18 x120)))))) (not (= (x135 x134 (x135 x18 x134)) x18))) (not (= (x135 x16 (x135 x18 x16)) x18))) (and (and (and (and (not (= x120 (x135 x18 (x135 x120 x18)))) (not (= x120 (x135 x120 (x135 x120 x120))))) (not (= x120 (x135 x1 (x135 x120 x1))))) (not (= x120 (x135 x134 (x135 x120 x134))))) (not (= x120 (x135 x16 (x135 x120 x16))))))) (and (not (= (x135 x16 (x135 x134 x16)) x134)) (and (not (= x134 (x135 x134 (x135 x134 x134)))) (and (and (not (= (x135 x18 (x135 x134 x18)) x134)) (not (= x134 (x135 x120 (x135 x134 x120))))) (not (= (x135 x1 (x135 x134 x1)) x134)))))) (and (and (and (not (= (x135 x1 (x135 x16 x1)) x16)) (and (not (= x16 (x135 x18 (x135 x16 x18)))) (not (= (x135 x120 (x135 x16 x120)) x16)))) (not (= (x135 x134 (x135 x16 x134)) x16))) (not (= (x135 x16 (x135 x16 x16)) x16)))))
(assert (and (not (= x16 x134)) (and (and (and (and (and (and (and (not (= x134 x120)) (and (not (= x1 x120)) (not (= x18 x120)))) (not (= x16 x120))) (not (= x1 x18))) (not (= x134 x18))) (not (= x16 x18))) (not (= x134 x1))) (not (= x1 x16)))))
(assert (let ((x153 (x135 x16 x120)) (x123 (x135 x1 x134)) (x99 (x135 x18 x1)) (x67 (x135 x1 x16)) (x157 (x135 x120 x134)) (x144 (x135 x18 x134)) (x122 (x135 x134 x18)) (x128 (x135 x120 x16)) (x95 (x135 x134 x1)) (x112 (x135 x18 x18)) (x70 (x135 x16 x134)) (x21 (x135 x120 x18)) (x156 (x135 x18 x16)) (x22 (x135 x120 x1)) (x43 (x135 x16 x1)) (x90 (x135 x1 x1)) (x158 (x135 x134 x134)) (x140 (x135 x1 x120)) (x113 (x135 x16 x16)) (x50 (x135 x1 x18)) (x49 (x135 x134 x120)) (x74 (x135 x18 x120)) (x148 (x135 x134 x16)) (x117 (x135 x16 x18)) (x151 (x135 x120 x120))) (and (and (and (not (= x148 x113)) (and (and (and (not (= x113 x156)) (and (not (= x156 x148)) (and (and (and (and (not (= x156 x128)) (not (= x128 x67))) (not (= x128 x148))) (not (= x128 x113))) (not (= x156 x67))))) (not (= x67 x148))) (not (= x113 x67)))) (and (and (and (and (not (= x153 x49)) (and (and (and (and (and (and (and (not (= x151 x49)) (and (not (= x140 x151)) (not (= x74 x151)))) (not (= x153 x151))) (not (= x74 x140))) (not (= x49 x74))) (not (= x74 x153))) (not (= x49 x140))) (not (= x140 x153)))) (and (and (and (not (= x50 x122)) (and (and (and (not (= x112 x50)) (and (and (not (= x21 x122)) (and (not (= x21 x50)) (not (= x21 x112)))) (not (= x21 x117)))) (not (= x112 x122))) (not (= x117 x112)))) (not (= x50 x117))) (not (= x117 x122)))) (and (not (= x95 x43)) (and (not (= x43 x90)) (and (and (not (= x99 x43)) (and (not (= x99 x95)) (and (and (not (= x22 x43)) (and (not (= x95 x22)) (and (not (= x99 x22)) (not (= x90 x22))))) (not (= x99 x90))))) (not (= x95 x90)))))) (and (not (= x70 x158)) (and (not (= x70 x123)) (and (not (= x123 x158)) (and (and (and (not (= x144 x123)) (and (and (and (not (= x157 x144)) (not (= x157 x123))) (not (= x158 x157))) (not (= x70 x157)))) (not (= x158 x144))) (not (= x70 x144)))))))) (and (and (not (= x113 x70)) (and (not (= x43 x113)) (and (not (= x43 x70)) (and (and (and (not (= x43 x117)) (and (not (= x153 x113)) (and (not (= x70 x153)) (and (not (= x153 x43)) (not (= x153 x117)))))) (not (= x117 x70))) (not (= x117 x113)))))) (and (and (and (and (and (not (= x156 x99)) (and (and (not (= x112 x156)) (and (and (not (= x112 x99)) (and (and (and (not (= x112 x74)) (not (= x99 x74))) (not (= x144 x74))) (not (= x74 x156)))) (not (= x144 x112)))) (not (= x99 x144)))) (not (= x156 x144))) (and (not (= x128 x157)) (and (not (= x22 x128)) (and (not (= x22 x157)) (and (and (and (not (= x21 x22)) (and (not (= x151 x128)) (and (not (= x157 x151)) (and (not (= x22 x151)) (not (= x151 x21)))))) (not (= x21 x157))) (not (= x21 x128))))))) (and (and (not (= x90 x67)) (and (and (not (= x50 x67)) (and (and (and (not (= x67 x140)) (and (and (not (= x50 x140)) (not (= x90 x140))) (not (= x140 x123)))) (not (= x90 x50))) (not (= x123 x50)))) (not (= x90 x123)))) (not (= x123 x67)))) (and (and (not (= x95 x148)) (and (and (not (= x148 x122)) (and (not (= x158 x122)) (and (and (and (and (not (= x49 x122)) (not (= x49 x95))) (not (= x49 x158))) (not (= x49 x148))) (not (= x95 x122))))) (not (= x158 x95)))) (not (= x148 x158))))))))
(assert (and (or (not (= (x135 (x135 x16 x16) x16) x16)) (or (not (= (x135 (x135 x134 x16) x16) x134)) (or (or (not (= (x135 (x135 x120 x16) x16) x120)) (not (= x18 (x135 (x135 x18 x16) x16)))) (not (= (x135 (x135 x1 x16) x16) x1))))) (and (and (and (or (or (not (= x134 (x135 (x135 x134 x18) x18))) (or (or (not (= (x135 (x135 x18 x18) x18) x18)) (not (= x120 (x135 (x135 x120 x18) x18)))) (not (= (x135 (x135 x1 x18) x18) x1)))) (not (= (x135 (x135 x16 x18) x18) x16))) (or (or (not (= (x135 (x135 x134 x120) x120) x134)) (or (not (= (x135 (x135 x1 x120) x120) x1)) (or (not (= x120 (x135 (x135 x120 x120) x120))) (not (= (x135 (x135 x18 x120) x120) x18))))) (not (= x16 (x135 (x135 x16 x120) x120))))) (or (not (= x16 (x135 (x135 x16 x1) x1))) (or (or (not (= (x135 (x135 x1 x1) x1) x1)) (or (not (= (x135 (x135 x18 x1) x1) x18)) (not (= x120 (x135 (x135 x120 x1) x1))))) (not (= x134 (x135 (x135 x134 x1) x1)))))) (or (or (not (= (x135 (x135 x134 x134) x134) x134)) (or (or (not (= x120 (x135 (x135 x120 x134) x134))) (not (= x18 (x135 (x135 x18 x134) x134)))) (not (= x1 (x135 (x135 x1 x134) x134))))) (not (= x16 (x135 (x135 x16 x134) x134)))))))
(assert (or (or (or (= (x135 x1 x1) x1) (or (= x18 (x135 x18 x18)) (= x120 (x135 x120 x120)))) (= x134 (x135 x134 x134))) (= (x135 x16 x16) x16)))
(assert (let ((x122 (x135 x1 x1)) (x99 (x135 x134 x18)) (x157 (x135 x134 x134)) (x140 (x135 x120 x18)) (x90 (x135 x18 x134)) (x43 (x135 x1 x134)) (x21 (x135 x120 x1)) (x144 (x135 x16 x120)) (x148 (x135 x134 x16)) (x74 (x135 x18 x120)) (x117 (x135 x134 x120)) (x49 (x135 x18 x18)) (x113 (x135 x16 x16)) (x151 (x135 x120 x120)) (x22 (x135 x120 x134)) (x158 (x135 x16 x18)) (x70 (x135 x18 x16)) (x128 (x135 x16 x1)) (x123 (x135 x120 x16)) (x95 (x135 x134 x1)) (x153 (x135 x1 x120)) (x67 (x135 x16 x134)) (x156 (x135 x1 x16)) (x112 (x135 x1 x18)) (x50 (x135 x18 x1))) (or (or (or (or (and (and (and (= x50 x112) (and (= x49 x49) (= x140 x74))) (= x90 x99)) (= x158 x70)) (and (and (and (and (= x74 x140) (= x151 x151)) (= x153 x21)) (= x22 x117)) (= x123 x144))) (and (and (= x95 x43) (and (= x122 x122) (and (= x153 x21) (= x50 x112)))) (= x156 x128))) (and (and (and (and (= x22 x117) (= x99 x90)) (= x43 x95)) (= x157 x157)) (= x67 x148))) (and (and (= x148 x67) (and (= x128 x156) (and (= x144 x123) (= x70 x158)))) (= x113 x113)))))
(assert (let ((x117 (= (x135 x16 x16) x16)) (x122 (= (x135 x134 x134) x134)) (x140 (= x18 (x135 x18 x18))) (x50 (= (x135 x1 x1) x1)) (x151 (= x120 (x135 x120 x120)))) (let ((x74 (not x151)) (x49 (not x140)) (x21 (not x122)) (x153 (not x50)) (x112 (not x117))) (or (or (or (and (= x134 (x135 x134 x16)) x112) (or (or (and (= (x135 x134 x1) x134) x153) (or (and (= (x135 x134 x18) x134) x49) (and (= (x135 x134 x120) x134) x74))) (and x21 x122))) (or (or (or (or (and x21 (= x120 (x135 x120 x134))) (or (and x153 (= (x135 x120 x1) x120)) (or (and x151 x74) (and x49 (= x120 (x135 x120 x18)))))) (and x112 (= (x135 x120 x16) x120))) (or (or (or (and (= x18 (x135 x18 x1)) x153) (or (and x49 x140) (and x74 (= x18 (x135 x18 x120))))) (and (= (x135 x18 x134) x18) x21)) (and x112 (= x18 (x135 x18 x16))))) (or (or (and x21 (= (x135 x1 x134) x1)) (or (and x50 x153) (or (and x49 (= (x135 x1 x18) x1)) (and x74 (= x1 (x135 x1 x120)))))) (and (= x1 (x135 x1 x16)) x112)))) (or (or (and (= (x135 x16 x134) x16) x21) (or (and x153 (= (x135 x16 x1) x16)) (or (and x74 (= (x135 x16 x120) x16)) (and (= x16 (x135 x16 x18)) x49)))) (and x117 x112))))))
(assert (let ((x49 (x135 x134 x134)) (x153 (x135 x16 x16)) (x140 (x135 x1 x1)) (x74 (x135 x18 x18)) (x151 (x135 x120 x120))) (or (and (not (= x16 x153)) (and (not (= x49 x16)) (and (and (not (= x151 x16)) (not (= x16 x74))) (not (= x16 x140))))) (or (or (and (not (= x1 x153)) (and (and (and (not (= x1 x151)) (not (= x74 x1))) (not (= x1 x140))) (not (= x1 x49)))) (or (and (not (= x153 x18)) (and (and (not (= x140 x18)) (and (not (= x74 x18)) (not (= x18 x151)))) (not (= x49 x18)))) (and (and (and (not (= x120 x140)) (and (not (= x120 x151)) (not (= x74 x120)))) (not (= x49 x120))) (not (= x120 x153))))) (and (not (= x134 x153)) (and (not (= x49 x134)) (and (not (= x134 x140)) (and (not (= x151 x134)) (not (= x134 x74))))))))))
(assert (let ((x38 (x135 x16 x120)) (x119 (x135 x18 x120)) (x3 (x135 x16 x1)) (x103 (x135 x1 x16)) (x51 (x135 x1 x1)) (x33 (x135 x120 x134)) (x118 (x135 x1 x18)) (x105 (x135 x120 x120)) (x2 (x135 x120 x1)) (x54 (x135 x18 x134)) (x141 (x135 x134 x134)) (x42 (x135 x18 x16)) (x53 (x135 x1 x120)) (x84 (x135 x18 x1)) (x44 (x135 x120 x16)) (x57 (x135 x120 x18)) (x9 (x135 x134 x120)) (x94 (x135 x16 x134)) (x40 (x135 x1 x134)) (x61 (x135 x134 x18)) (x78 (x135 x18 x18)) (x8 (x135 x16 x18)) (x7 (x135 x134 x16)) (x35 (x135 x134 x1)) (x23 (x135 x16 x16))) (let ((x19 (= x78 x1)) (x121 (= x105 x16)) (x158 (= x8 x120)) (x58 (= x1 x118)) (x56 (= x35 x16)) (x91 (= x61 x16)) (x73 (= x57 x16)) (x111 (= x16 x38)) (x14 (= x1 x44)) (x136 (= x2 x1)) (x28 (= x57 x1)) (x13 (= x18 x23)) (x104 (= x51 x18)) (x17 (= x78 x18)) (x127 (= x141 x1)) (x138 (= x134 x51)) (x112 (= x118 x120)) (x83 (= x84 x16)) (x79 (= x9 x134)) (x80 (= x16 x2)) (x145 (= x42 x16)) (x108 (= x18 x61)) (x39 (= x134 x103)) (x132 (= x61 x1)) (x10 (= x16 x23)) (x129 (= x134 x40)) (x87 (= x141 x16)) (x122 (= x120 x51)) (x146 (= x8 x1)) (x29 (= x8 x16)) (x159 (= x94 x134)) (x93 (= x1 x38)) (x117 (= x9 x120)) (x114 (= x119 x1)) (x130 (= x18 x38)) (x36 (= x40 x18)) (x116 (= x134 x42)) (x67 (= x94 x120)) (x147 (= x134 x38)) (x48 (= x3 x1)) (x76 (= x16 x119)) (x41 (= x16 x51)) (x89 (= x1 x35)) (x86 (= x1 x23)) (x62 (= x9 x16)) (x74 (= x119 x120)) (x125 (= x18 x33)) (x60 (= x7 x16)) (x154 (= x44 x16)) (x55 (= x54 x18)) (x71 (= x1 x51)) (x155 (= x84 x1)) (x63 (= x18 x53)) (x102 (= x33 x134)) (x15 (= x18 x103)) (x123 (= x44 x120)) (x131 (= x18 x35)) (x109 (= x1 x7)) (x98 (= x134 x2)) (x47 (= x1 x105)) (x26 (= x1 x42)) (x6 (= x18 x118)) (x106 (= x54 x134)) (x153 (= x120 x53)) (x21 (= x120 x2)) (x99 (= x61 x120)) (x115 (= x134 x84)) (x82 (= x94 x16)) (x144 (= x120 x38)) (x101 (= x134 x141)) (x142 (= x7 x18)) (x126 (= x16 x3)) (x65 (= x33 x16)) (x90 (= x54 x120)) (x149 (= x18 x44)) (x68 (= x54 x1)) (x85 (= x2 x18)) (x31 (= x134 x3)) (x96 (= x40 x1)) (x152 (= x3 x18)) (x140 (= x57 x120)) (x66 (= x84 x18)) (x156 (= x120 x103)) (x70 (= x42 x120)) (x45 (= x18 x42)) (x49 (= x78 x120)) (x4 (= x103 x1)) (x113 (= x120 x23)) (x151 (= x105 x120)) (x32 (= x53 x16)) (x37 (= x134 x57)) (x88 (= x78 x134)) (x34 (= x134 x44)) (x81 (= x7 x134)) (x137 (= x134 x119)) (x50 (= x120 x84)) (x25 (= x18 x119)) (x133 (= x94 x18)) (x97 (= x16 x54)) (x46 (= x53 x1)) (x24 (= x105 x18)) (x59 (= x16 x78)) (x148 (= x120 x7)) (x12 (= x16 x103)) (x43 (= x120 x40)) (x75 (= x141 x18)) (x128 (= x120 x3)) (x52 (= x134 x35)) (x139 (= x18 x57)) (x77 (= x9 x1)) (x150 (= x16 x40)) (x107 (= x134 x23)) (x64 (= x105 x134)) (x92 (= x134 x118)) (x72 (= x118 x16)) (x22 (= x33 x120)) (x157 (= x120 x141)) (x100 (= x1 x33)) (x95 (= x35 x120)) (x5 (= x18 x8)) (x69 (= x53 x134)) (x124 (= x18 x9)) (x143 (= x1 x94)) (x27 (= x61 x134)) (x30 (= x8 x134))) (and (and (or (or (and x107 x107) (or (or (or (and x30 x116) (and x147 x34)) (and x31 x39)) (and x159 x81))) (or (or (or (or (or (or (and x115 x92) (or (and x37 x137) (and x88 x88))) (and x27 x106)) (and x116 x30)) (or (or (or (or (and x64 x64) (and x137 x37)) (and x98 x69)) (and x79 x102)) (and x147 x34))) (or (or (or (and x138 x138) (or (and x98 x69) (and x115 x92))) (and x129 x52)) (and x31 x39))) (or (and x159 x81) (or (and x101 x101) (or (or (and x106 x27) (and x79 x102)) (and x52 x129)))))) (and (and (or (or (or (or (or (or (and x124 x125) (and x108 x55)) (and x131 x36)) (and x75 x75)) (and x133 x142)) (or (or (or (or (or (and x66 x6) (or (and x17 x17) (and x139 x25))) (and x108 x55)) (and x45 x5)) (or (or (or (or (and x25 x139) (and x24 x24)) (and x63 x85)) (and x125 x124)) (and x130 x149))) (or (or (and x131 x36) (or (or (and x63 x85) (and x66 x6)) (and x104 x104))) (and x15 x152)))) (or (and x13 x13) (or (and x133 x142) (or (or (and x5 x45) (and x130 x149)) (and x15 x152))))) (or (or (and x113 x113) (or (and x67 x148) (or (or (and x123 x144) (and x70 x158)) (and x156 x128)))) (or (or (and x67 x148) (or (and x157 x157) (or (and x95 x43) (or (and x99 x90) (and x22 x117))))) (or (or (or (and x123 x144) (or (or (and x21 x153) (or (and x74 x140) (and x151 x151))) (and x117 x22))) (or (and x70 x158) (or (and x90 x99) (or (or (and x74 x140) (and x49 x49)) (and x112 x50))))) (or (or (or (and x122 x122) (or (and x21 x153) (and x112 x50))) (and x43 x95)) (and x156 x128)))))) (or (or (or (and x143 x109) (or (and x127 x127) (or (or (and x132 x68) (and x100 x77)) (and x89 x96)))) (or (or (or (or (or (or (and x28 x114) (and x47 x47)) (and x136 x46)) (and x100 x77)) (and x93 x14)) (or (and x26 x146) (or (and x68 x132) (or (and x155 x58) (or (and x19 x19) (and x28 x114)))))) (or (and x4 x48) (or (or (or (and x155 x58) (and x46 x136)) (and x71 x71)) (and x96 x89))))) (or (and x86 x86) (or (or (or (and x14 x93) (and x146 x26)) (and x4 x48)) (and x143 x109)))))) (or (or (or (or (or (or (or (or (and x76 x73) (and x59 x59)) (and x72 x83)) (and x97 x91)) (and x29 x145)) (or (and x154 x111) (or (and x62 x65) (or (or (and x76 x73) (and x121 x121)) (and x80 x32))))) (or (and x126 x12) (or (and x150 x56) (or (or (and x80 x32) (and x72 x83)) (and x41 x41))))) (or (or (or (and x150 x56) (or (and x65 x62) (and x91 x97))) (and x87 x87)) (and x82 x60))) (or (and x10 x10) (or (and x82 x60) (or (or (and x111 x154) (and x145 x29)) (and x12 x126)))))))))
(assert (let ((x74 (x135 x120 x120)) (x49 (x135 x1 x1)) (x21 (x135 x16 x16)) (x140 (x135 x18 x18)) (x153 (x135 x134 x134))) (let ((x95 (= x153 x134)) (x151 (= x74 x120)) (x90 (= x49 x1)) (x50 (= x18 x140)) (x43 (= x16 x21))) (let ((x22 (and (not (= x134 x21)) (and (not x95) (and (not (= x134 x49)) (and (not (= x74 x134)) (not (= x134 x140))))))) (x117 (and (and (and (not x90) (and (not (= x1 x74)) (not (= x1 x140)))) (not (= x153 x1))) (not (= x1 x21)))) (x99 (and (not x43) (and (and (and (not (= x74 x16)) (not (= x16 x140))) (not (= x16 x49))) (not (= x16 x153))))) (x112 (and (and (and (not (= x120 x49)) (and (not (= x140 x120)) (not x151))) (not (= x153 x120))) (not (= x120 x21)))) (x122 (and (and (and (and (not (= x74 x18)) (not x50)) (not (= x49 x18))) (not (= x18 x153))) (not (= x18 x21))))) (or (or (or (or (and x95 x22) (or (or (and (= (x135 x134 x18) x134) x122) (and x112 (= x134 (x135 x134 x120)))) (and (= x134 (x135 x134 x1)) x117))) (and (= x134 (x135 x134 x16)) x99)) (or (or (and (= (x135 x1 x16) x1) x99) (or (or (and x90 x117) (or (and (= x1 (x135 x1 x120)) x112) (and (= (x135 x1 x18) x1) x122))) (and x22 (= (x135 x1 x134) x1)))) (or (or (and (= (x135 x120 x16) x120) x99) (or (or (and x117 (= (x135 x120 x1) x120)) (or (and x151 x112) (and (= x120 (x135 x120 x18)) x122))) (and (= x120 (x135 x120 x134)) x22))) (or (and (= (x135 x18 x16) x18) x99) (or (and (= x18 (x135 x18 x134)) x22) (or (or (and (= x18 (x135 x18 x120)) x112) (and x122 x50)) (and x117 (= (x135 x18 x1) x18)))))))) (or (and x99 x43) (or (or (or (and x112 (= (x135 x16 x120) x16)) (and x122 (= (x135 x16 x18) x16))) (and x117 (= (x135 x16 x1) x16))) (and x22 (= x16 (x135 x16 x134))))))))))
(assert (and (= x16 (x135 x18 x18)) (and (and (= x120 (x135 x16 x16)) (= (x135 x134 x120) x1)) (= (x135 x18 x120) x134))))
(assert (not (and (= (x135 x16 x16) x120) (and (and (and (= (x135 x16 x18) x1) (and (= x16 (x135 x16 x120)) (and (= (x135 x134 x16) x16) (and (and (and (and (= x1 (x135 x134 x120)) (and (= (x135 x1 x16) x134) (and (and (and (= x120 (x135 x1 x18)) (and (and (and (= x18 (x135 x18 x134)) (and (and (= (x135 x18 x18) x16) (and (and (and (and (= (x135 x120 x1) x1) (and (= (x135 x120 x120) x120) (= (x135 x120 x18) x134))) (= x16 (x135 x120 x134))) (= x18 (x135 x120 x16))) (= (x135 x18 x120) x134))) (= x120 (x135 x18 x1)))) (= (x135 x18 x16) x1)) (= x18 (x135 x1 x120)))) (= x16 (x135 x1 x1))) (= (x135 x1 x134) x1)))) (= x18 (x135 x134 x18))) (= (x135 x134 x1) x134)) (= (x135 x134 x134) x120))))) (= (x135 x16 x1) x18)) (= x134 (x135 x16 x134))))))
(assert (not (and (= (x135 x16 x16) x120) (and (= x18 (x135 x16 x134)) (and (and (= x134 (x135 x16 x18)) (and (= (x135 x16 x120) x16) (and (= (x135 x134 x16) x18) (and (= (x135 x134 x134) x16) (and (= (x135 x134 x1) x134) (and (= (x135 x134 x18) x120) (and (and (= x16 (x135 x1 x16)) (and (and (and (= (x135 x1 x18) x1) (and (and (and (= (x135 x18 x134) x120) (and (= x18 (x135 x18 x1)) (and (and (and (= x134 (x135 x120 x16)) (and (= (x135 x120 x134) x1) (and (= (x135 x120 x1) x16) (and (= (x135 x120 x18) x18) (= (x135 x120 x120) x120))))) (= (x135 x18 x120) x134)) (= x16 (x135 x18 x18))))) (= (x135 x18 x16) x1)) (= (x135 x1 x120) x18))) (= x120 (x135 x1 x1))) (= x134 (x135 x1 x134)))) (= x1 (x135 x134 x120))))))))) (= (x135 x16 x1) x1))))))
(assert (let ((x158 (x135 x16 x18)) (x128 (x135 x16 x1)) (x57 (x135 x18 x120)) (x113 (x135 x16 x16)) (x122 (x135 x1 x1)) (x90 (x135 x18 x134)) (x99 (x135 x134 x18)) (x21 (x135 x120 x1)) (x50 (x135 x18 x1)) (x95 (x135 x134 x1)) (x148 (x135 x134 x16)) (x105 (x135 x120 x120)) (x70 (x135 x18 x16)) (x156 (x135 x1 x16)) (x8 (x135 x16 x120)) (x157 (x135 x134 x134)) (x43 (x135 x1 x134)) (x9 (x135 x1 x120)) (x22 (x135 x120 x134)) (x112 (x135 x1 x18)) (x123 (x135 x120 x16)) (x17 (x135 x134 x120)) (x49 (x135 x18 x18)) (x67 (x135 x16 x134)) (x140 (x135 x120 x18))) (let ((x78 (not (= x1 x128))) (x85 (not (= x70 x16))) (x84 (not (= x22 x134))) (x54 (not (= x43 x134))) (x25 (not (= x122 x1))) (x24 (not (= x140 x18))) (x139 (not (= x95 x1))) (x63 (not (= x16 x123))) (x151 (not (= x120 x105))) (x44 (not (= x1 x21))) (x61 (not (= x157 x134))) (x119 (not (= x18 x49))) (x6 (not (= x156 x16))) (x74 (not (= x120 x57))) (x118 (not (= x90 x134))) (x53 (not (= x99 x18))) (x42 (not (= x67 x134))) (x66 (not (= x148 x16))) (x38 (not (= x1 x50))) (x144 (not (= x120 x8))) (x2 (not (= x18 x112))) (x33 (not (= x18 x158))) (x51 (not (= x113 x16))) (x153 (not (= x120 x9))) (x117 (not (= x17 x120)))) (or (and (and (and (and (and (or x63 x144) (and (and (and (or (not (= x105 x16)) x151) (or x74 (not (= x140 x16)))) (or (not (= x16 x21)) x153)) (or x117 (not (= x22 x16))))) (and (or x85 x33) (and (and (and (or x119 (not (= x49 x16))) (or (not (= x57 x16)) x24)) (or x2 (not (= x50 x16)))) (or x53 (not (= x90 x16)))))) (and (or x6 x78) (and (or x139 (not (= x16 x43))) (and (and (or (not (= x112 x16)) x38) (or (not (= x16 x9)) x44)) (or x25 (not (= x16 x122))))))) (and (or x42 x66) (and (or (not (= x16 x157)) x61) (and (or x54 (not (= x95 x16))) (and (or x84 (not (= x16 x17))) (or (not (= x16 x99)) x118)))))) (and (and (and (or (not (= x128 x16)) x6) (and (or x85 (not (= x158 x16))) (or x63 (not (= x8 x16))))) (or x66 (not (= x16 x67)))) (or x51 x51))) (or (or (and (and (and (or x42 (not (= x148 x1))) (and (or x61 (not (= x1 x157))) (and (or x54 x139) (and (or (not (= x1 x17)) x84) (or x118 (not (= x1 x99))))))) (and (and (and (and (and (or (not (= x1 x9)) x44) (or x38 (not (= x1 x112)))) (or x25 x25)) (or (not (= x1 x43)) x139)) (or x78 (not (= x156 x1)))) (and (and (and (and (or x44 x153) (and (or (not (= x140 x1)) x74) (or (not (= x1 x105)) x151))) (or (not (= x1 x22)) x117)) (or (not (= x123 x1)) x144)) (and (and (or (not (= x1 x90)) x53) (and (and (or x119 (not (= x1 x49))) (or x24 (not (= x1 x57)))) (or x2 x38))) (or x33 (not (= x1 x70))))))) (and (or (not (= x1 x113)) x51) (and (or (not (= x1 x67)) x66) (and (and (or x85 (not (= x158 x1))) (or x63 (not (= x1 x8)))) (or x78 x6))))) (or (and (and (and (or (not (= x18 x67)) x66) (and (or x6 (not (= x18 x128))) (and (or x33 x85) (or x63 (not (= x8 x18)))))) (or x51 (not (= x113 x18)))) (and (and (and (or x61 (not (= x18 x157))) (and (or (not (= x95 x18)) x54) (and (or x118 x53) (or x84 (not (= x17 x18)))))) (or (not (= x148 x18)) x42)) (and (and (and (and (and (or (not (= x21 x18)) x153) (and (or x24 x74) (or (not (= x105 x18)) x151))) (or x117 (not (= x18 x22)))) (or (not (= x18 x123)) x144)) (and (or x33 (not (= x18 x70))) (and (or x53 (not (= x18 x90))) (and (and (or x119 x119) (or x24 (not (= x18 x57)))) (or x2 (not (= x50 x18))))))) (and (and (and (or x25 (not (= x122 x18))) (and (or x44 (not (= x18 x9))) (or x38 x2))) (or (not (= x18 x43)) x139)) (or x78 (not (= x156 x18))))))) (and (and (and (and (and (or x33 (not (= x70 x120))) (and (and (and (or (not (= x120 x49)) x119) (or x74 x24)) (or (not (= x120 x50)) x2)) (or x53 (not (= x90 x120))))) (and (and (or x117 (not (= x22 x120))) (and (or (not (= x21 x120)) x153) (and (or x151 x151) (or x74 (not (= x140 x120)))))) (or x144 (not (= x123 x120))))) (and (and (and (or x25 (not (= x120 x122))) (and (or x44 x153) (or (not (= x112 x120)) x38))) (or (not (= x43 x120)) x139)) (or x78 (not (= x120 x156))))) (and (and (and (or x54 (not (= x120 x95))) (and (or x117 x84) (or (not (= x99 x120)) x118))) (or x61 (not (= x157 x120)))) (or (not (= x148 x120)) x42))) (and (or x51 (not (= x113 x120))) (and (and (and (or x85 (not (= x120 x158))) (or x144 x63)) (or (not (= x120 x128)) x6)) (or x66 (not (= x120 x67)))))))) (and (and (or (not (= x134 x113)) x51) (and (and (and (or x63 (not (= x8 x134))) (or (not (= x158 x134)) x85)) (or x6 (not (= x134 x128)))) (or x66 x42))) (and (and (and (and (or (not (= x70 x134)) x33) (and (or x118 x53) (and (or (not (= x134 x50)) x2) (and (or x119 (not (= x49 x134))) (or (not (= x134 x57)) x24))))) (and (or (not (= x123 x134)) x144) (and (and (or x153 (not (= x134 x21))) (and (or (not (= x134 x140)) x74) (or x151 (not (= x105 x134))))) (or x117 x84)))) (and (and (or x139 x54) (and (or (not (= x122 x134)) x25) (and (or (not (= x9 x134)) x44) (or x38 (not (= x112 x134)))))) (or x78 (not (= x156 x134))))) (and (and (or x61 x61) (and (or (not (= x134 x95)) x54) (and (or x84 (not (= x17 x134))) (or x118 (not (= x134 x99)))))) (or x42 (not (= x134 x148)))))))))))
(assert (let ((x156 (x135 x18 x16)) (x24 (x135 x16 x18)) (x155 (x135 x16 x134)) (x34 (x135 x16 x16)) (x153 (x135 x120 x134)) (x21 (x135 x120 x16)) (x42 (x135 x1 x1)) (x122 (x135 x1 x120)) (x140 (x135 x120 x18)) (x70 (x135 x18 x1)) (x74 (x135 x120 x120)) (x128 (x135 x18 x134)) (x49 (x135 x120 x1)) (x117 (x135 x134 x120)) (x114 (x135 x134 x134)) (x28 (x135 x134 x16)) (x51 (x135 x134 x1)) (x104 (x135 x16 x1)) (x63 (x135 x1 x16)) (x50 (x135 x18 x120)) (x22 (x135 x16 x120)) (x105 (x135 x134 x18)) (x158 (x135 x18 x18)) (x8 (x135 x1 x134)) (x113 (x135 x1 x18))) (let ((x9 (= x134 x158)) (x37 (= x16 x8)) (x36 (= x134 x42)) (x38 (= x16 x140)) (x157 (= x140 x120)) (x111 (= x22 x16)) (x59 (= x156 x1)) (x84 (= x120 x70)) (x40 (= x122 x1)) (x5 (= x105 x120)) (x97 (= x156 x134)) (x159 (= x18 x34)) (x27 (= x120 x28)) (x32 (= x63 x1)) (x23 (= x117 x18)) (x131 (= x134 x70)) (x48 (= x134 x8)) (x62 (= x134 x104)) (x88 (= x16 x114)) (x80 (= x1 x28)) (x58 (= x18 x114)) (x66 (= x18 x42)) (x137 (= x16 x128)) (x56 (= x134 x63)) (x6 (= x70 x18)) (x136 (= x8 x18)) (x147 (= x18 x155)) (x116 (= x18 x156)) (x68 (= x128 x1)) (x148 (= x158 x18)) (x152 (= x153 x120)) (x102 (= x63 x120)) (x2 (= x1 x158)) (x26 (= x128 x134)) (x93 (= x105 x134)) (x91 (= x21 x134)) (x75 (= x113 x16)) (x45 (= x120 x51)) (x17 (= x49 x120)) (x101 (= x18 x104)) (x133 (= x8 x120)) (x39 (= x28 x18)) (x151 (= x120 x74)) (x129 (= x24 x18)) (x60 (= x28 x16)) (x30 (= x21 x18)) (x106 (= x120 x34)) (x139 (= x120 x122)) (x108 (= x134 x113)) (x154 (= x24 x16)) (x94 (= x70 x16)) (x31 (= x18 x63)) (x103 (= x1 x49)) (x130 (= x42 x16)) (x100 (= x1 x51)) (x96 (= x114 x1)) (x4 (= x134 x114)) (x43 (= x50 x120)) (x146 (= x134 x153)) (x89 (= x8 x1)) (x144 (= x158 x120)) (x92 (= x104 x120)) (x3 (= x70 x1)) (x52 (= x22 x18)) (x78 (= x113 x120)) (x119 (= x140 x1)) (x142 (= x120 x114)) (x77 (= x105 x1)) (x99 (= x74 x1)) (x12 (= x156 x16)) (x7 (= x49 x16)) (x87 (= x134 x34)) (x90 (= x134 x74)) (x132 (= x153 x1)) (x69 (= x120 x22)) (x127 (= x117 x134)) (x107 (= x1 x24)) (x115 (= x155 x120)) (x67 (= x18 x140)) (x15 (= x120 x128)) (x13 (= x105 x18)) (x14 (= x134 x51)) (x57 (= x1 x50)) (x71 (= x1 x117)) (x41 (= x24 x134)) (x86 (= x51 x16)) (x95 (= x16 x74)) (x98 (= x120 x24)) (x143 (= x16 x117)) (x76 (= x155 x1)) (x82 (= x16 x63)) (x83 (= x134 x22)) (x61 (= x18 x113)) (x73 (= x1 x21)) (x54 (= x122 x18)) (x118 (= x42 x120)) (x126 (= x21 x16)) (x85 (= x49 x18)) (x125 (= x122 x134)) (x112 (= x18 x74)) (x79 (= x156 x120)) (x55 (= x49 x134)) (x44 (= x16 x50)) (x138 (= x120 x21)) (x124 (= x42 x1)) (x109 (= x16 x105)) (x47 (= x18 x51)) (x19 (= x153 x18)) (x65 (= x155 x134)) (x10 (= x16 x34)) (x145 (= x16 x155)) (x72 (= x34 x1)) (x53 (= x134 x50)) (x81 (= x1 x22)) (x121 (= x1 x104)) (x150 (= x134 x28)) (x123 (= x18 x50)) (x35 (= x113 x1)) (x25 (= x158 x16)) (x29 (= x16 x104)) (x141 (= x122 x16)) (x149 (= x120 x117)) (x64 (= x153 x16)) (x46 (= x128 x18)) (x33 (= x140 x134))) (and (and (and (and (and (and (and (or (or (or x125 (or x53 x90)) x127) x83) (or (or (or x55 (or x33 x90)) x146) x91)) (and (and (or (or x132 (or (or x119 x99) x103)) x73) (or (or x71 (or (or x99 x57) x40)) x81)) (and (and (or x30 (or x19 (or (or x112 x67) x85))) (or (or (or (or x112 x123) x54) x23) x52)) (and (or (or x149 (or x139 (or x43 x151))) x69) (or (or x152 (or (or x157 x151) x17)) x138))))) (and (or (or (or x7 (or x95 x38)) x64) x126) (or (or x143 (or (or x44 x95) x141)) x111))) (and (and (or (or x137 (or x94 (or x25 x44))) x12) (or (or (or (or x38 x25) x75) x109) x154)) (and (and (and (or (or x77 (or (or x2 x119) x35)) x107) (or (or (or (or x2 x57) x3) x68) x59)) (and (and (or (or (or x78 (or x157 x144)) x5) x98) (or (or (or x84 (or x43 x144)) x15) x79)) (and (or x116 (or x46 (or x6 (or x148 x123)))) (or x129 (or (or x61 (or x148 x67)) x13))))) (and (or x97 (or x26 (or (or x53 x9) x131))) (or x41 (or (or (or x9 x33) x108) x93)))))) (and (and (or (or (or x130 (or x94 x7)) x86) x29) (or (or x37 (or (or x75 x141) x130)) x82)) (and (and (and (and (or (or x47 (or (or x85 x6) x66)) x101) (or (or (or x66 (or x54 x61)) x136) x31)) (and (or x92 (or (or (or x17 x84) x118) x45)) (or (or (or (or x78 x139) x118) x133) x102))) (and (or x32 (or (or (or x35 x40) x124) x89)) (or (or x100 (or (or x103 x3) x124)) x121))) (and (or (or (or (or x55 x131) x36) x14) x62) (or (or (or x36 (or x125 x108)) x48) x56))))) (and (and (or (or (or x86 (or x109 x143)) x88) x60) (or x145 (or x88 (or (or x64 x137) x37)))) (and (and (and (or x80 (or x96 (or x100 (or x77 x71)))) (or (or (or x89 (or x132 x68)) x96) x76)) (and (and (or x39 (or x58 (or (or x23 x13) x47))) (or (or x58 (or x136 (or x46 x19))) x147)) (and (or x27 (or x142 (or x45 (or x149 x5)))) (or x115 (or (or x133 (or x152 x15)) x142))))) (and (or (or (or x14 (or x93 x127)) x4) x150) (or x65 (or x4 (or x48 (or x146 x26)))))))) (and (and (or x10 (or (or (or x12 x126) x82) x60)) (or x10 (or x145 (or (or x111 x154) x29)))) (and (and (or (or (or (or x83 x41) x62) x65) x87) (or x87 (or x150 (or (or x91 x97) x56)))) (and (and (or x72 (or (or (or x59 x73) x32) x80)) (or (or (or (or x107 x81) x121) x76) x72)) (and (and (or x106 (or (or (or x138 x79) x102) x27)) (or x106 (or (or x92 (or x98 x69)) x115))) (and (or (or (or (or x116 x30) x31) x39) x159) (or (or x147 (or x101 (or x52 x129))) x159))))))))))
(assert (let ((x49 (x135 x134 x134)) (x74 (x135 x18 x18)) (x153 (x135 x16 x16)) (x151 (x135 x120 x120)) (x140 (x135 x1 x1))) (or (not (= (x135 x153 x153) x153)) (or (not (= x49 (x135 x49 x49))) (or (not (= x140 (x135 x140 x140))) (or (not (= (x135 x151 x151) x151)) (not (= (x135 x74 x74) x74))))))))
(assert (let ((x99 (x135 x1 x18)) (x123 (x135 x134 x1)) (x50 (x135 x18 x1)) (x144 (x135 x134 x18)) (x70 (x135 x134 x16)) (x153 (x135 x120 x16)) (x117 (x135 x18 x16)) (x90 (x135 x1 x1)) (x128 (x135 x16 x120)) (x22 (x135 x1 x120)) (x49 (x135 x120 x134)) (x95 (x135 x1 x134)) (x158 (x135 x134 x134)) (x156 (x135 x16 x18)) (x157 (x135 x134 x120)) (x148 (x135 x16 x134)) (x43 (x135 x1 x16)) (x151 (x135 x120 x120)) (x21 (x135 x18 x120)) (x122 (x135 x18 x134)) (x67 (x135 x16 x1)) (x140 (x135 x120 x1)) (x112 (x135 x18 x18)) (x74 (x135 x120 x18)) (x113 (x135 x16 x16))) (and (and (and (and (and (and (and (and (or (or (or (= x151 x1) (or (= x151 x18) (= x151 x120))) (= x134 x151)) (= x151 x16)) (or (= x74 x16) (or (= x134 x74) (or (= x74 x1) (or (= x74 x120) (= x18 x74)))))) (or (or (or (= x140 x1) (or (= x140 x18) (= x120 x140))) (= x134 x140)) (= x16 x140))) (or (or (or (= x1 x49) (or (= x49 x120) (= x49 x18))) (= x49 x134)) (= x49 x16))) (or (= x153 x16) (or (or (= x1 x153) (or (= x18 x153) (= x120 x153))) (= x153 x134)))) (and (or (= x117 x16) (or (= x134 x117) (or (or (= x117 x18) (= x117 x120)) (= x1 x117)))) (and (and (or (or (= x134 x50) (or (= x1 x50) (or (= x50 x18) (= x120 x50)))) (= x16 x50)) (and (or (= x16 x112) (or (= x134 x112) (or (= x1 x112) (or (= x112 x120) (= x112 x18))))) (or (= x21 x16) (or (= x21 x134) (or (= x21 x1) (or (= x21 x120) (= x18 x21))))))) (or (or (= x134 x122) (or (= x1 x122) (or (= x18 x122) (= x120 x122)))) (= x122 x16))))) (and (or (or (or (= x1 x43) (or (= x120 x43) (= x43 x18))) (= x43 x134)) (= x16 x43)) (and (or (= x95 x16) (or (= x134 x95) (or (= x95 x1) (or (= x18 x95) (= x120 x95))))) (and (or (or (= x134 x90) (or (or (= x90 x18) (= x120 x90)) (= x90 x1))) (= x90 x16)) (and (or (or (or (or (= x99 x18) (= x99 x120)) (= x1 x99)) (= x99 x134)) (= x16 x99)) (or (= x16 x22) (or (or (= x22 x1) (or (= x18 x22) (= x22 x120))) (= x134 x22)))))))) (and (and (and (and (or (or (= x134 x144) (or (= x1 x144) (or (= x144 x120) (= x18 x144)))) (= x144 x16)) (or (or (= x134 x157) (or (= x157 x1) (or (= x157 x120) (= x157 x18)))) (= x16 x157))) (or (= x123 x16) (or (= x123 x134) (or (or (= x123 x18) (= x120 x123)) (= x1 x123))))) (or (= x158 x16) (or (or (or (= x158 x18) (= x158 x120)) (= x1 x158)) (= x158 x134)))) (or (= x70 x16) (or (or (= x1 x70) (or (= x70 x120) (= x18 x70))) (= x134 x70))))) (and (and (and (or (or (or (= x1 x67) (or (= x18 x67) (= x120 x67))) (= x134 x67)) (= x16 x67)) (and (or (or (= x134 x128) (or (= x128 x1) (or (= x128 x120) (= x128 x18)))) (= x16 x128)) (or (or (= x134 x156) (or (or (= x156 x120) (= x18 x156)) (= x1 x156))) (= x16 x156)))) (or (= x148 x16) (or (= x134 x148) (or (= x148 x1) (or (= x18 x148) (= x120 x148)))))) (or (= x113 x16) (or (or (or (= x18 x113) (= x113 x120)) (= x113 x1)) (= x134 x113)))))))
(assert (or (or (or (or (and (and (and (not (= x1 (x135 x120 (x135 x120 x1)))) (and (not (= (x135 x120 (x135 x120 x120)) x120)) (not (= (x135 x120 (x135 x120 x18)) x18)))) (not (= (x135 x120 (x135 x120 x134)) x134))) (not (= x16 (x135 x120 (x135 x120 x16))))) (and (and (not (= x134 (x135 x18 (x135 x18 x134)))) (and (and (not (= x120 (x135 x18 (x135 x18 x120)))) (not (= (x135 x18 (x135 x18 x18)) x18))) (not (= (x135 x18 (x135 x18 x1)) x1)))) (not (= x16 (x135 x18 (x135 x18 x16)))))) (and (and (and (not (= (x135 x1 (x135 x1 x1)) x1)) (and (not (= x18 (x135 x1 (x135 x1 x18)))) (not (= x120 (x135 x1 (x135 x1 x120)))))) (not (= x134 (x135 x1 (x135 x1 x134))))) (not (= x16 (x135 x1 (x135 x1 x16)))))) (and (and (not (= (x135 x134 (x135 x134 x134)) x134)) (and (and (not (= x18 (x135 x134 (x135 x134 x18)))) (not (= (x135 x134 (x135 x134 x120)) x120))) (not (= x1 (x135 x134 (x135 x134 x1)))))) (not (= x16 (x135 x134 (x135 x134 x16)))))) (and (and (and (not (= (x135 x16 (x135 x16 x1)) x1)) (and (not (= (x135 x16 (x135 x16 x120)) x120)) (not (= (x135 x16 (x135 x16 x18)) x18)))) (not (= x134 (x135 x16 (x135 x16 x134))))) (not (= (x135 x16 (x135 x16 x16)) x16)))))
(assert (or (or (and (and (not (= x134 (x135 (x135 x134 x134) x134))) (and (not (= (x135 (x135 x134 x1) x134) x1)) (and (not (= x18 (x135 (x135 x134 x18) x134))) (not (= x120 (x135 (x135 x134 x120) x134)))))) (not (= (x135 (x135 x134 x16) x134) x16))) (or (and (not (= x16 (x135 (x135 x1 x16) x1))) (and (not (= (x135 (x135 x1 x134) x1) x134)) (and (not (= (x135 (x135 x1 x1) x1) x1)) (and (not (= x18 (x135 (x135 x1 x18) x1))) (not (= (x135 (x135 x1 x120) x1) x120)))))) (or (and (and (and (not (= (x135 (x135 x18 x1) x18) x1)) (and (not (= x120 (x135 (x135 x18 x120) x18))) (not (= (x135 (x135 x18 x18) x18) x18)))) (not (= (x135 (x135 x18 x134) x18) x134))) (not (= (x135 (x135 x18 x16) x18) x16))) (and (not (= x16 (x135 (x135 x120 x16) x120))) (and (and (and (not (= (x135 (x135 x120 x18) x120) x18)) (not (= (x135 (x135 x120 x120) x120) x120))) (not (= x1 (x135 (x135 x120 x1) x120)))) (not (= x134 (x135 (x135 x120 x134) x120)))))))) (and (and (not (= (x135 (x135 x16 x134) x16) x134)) (and (not (= (x135 (x135 x16 x1) x16) x1)) (and (not (= (x135 (x135 x16 x18) x16) x18)) (not (= x120 (x135 (x135 x16 x120) x16)))))) (not (= (x135 (x135 x16 x16) x16) x16)))))
(check-sat)
(exit)
